language Essence 1.3

letting codeWordLength be 31
letting dist be
        function((1, 1) --> 0, (1, 2) --> 7, (1, 3) --> 6, (1, 4) --> 17, (1, 5) --> 9, (1, 6) --> 6, (1, 7) --> 12,
                 (1, 8) --> 21, (1, 9) --> 6, (1, 10) --> 12, (1, 11) --> 5, (1, 12) --> 24, (1, 13) --> 24,
                 (1, 14) --> 14, (1, 15) --> 20, (1, 16) --> 6, (2, 1) --> 7, (2, 2) --> 0, (2, 3) --> 4, (2, 4) --> 20,
                 (2, 5) --> 1, (2, 6) --> 8, (2, 7) --> 9, (2, 8) --> 0, (2, 9) --> 5, (2, 10) --> 5, (2, 11) --> 24,
                 (2, 12) --> 14, (2, 13) --> 25, (2, 14) --> 11, (2, 15) --> 4, (2, 16) --> 16, (3, 1) --> 6,
                 (3, 2) --> 4, (3, 3) --> 0, (3, 4) --> 4, (3, 5) --> 2, (3, 6) --> 10, (3, 7) --> 22, (3, 8) --> 13,
                 (3, 9) --> 1, (3, 10) --> 18, (3, 11) --> 14, (3, 12) --> 22, (3, 13) --> 21, (3, 14) --> 19,
                 (3, 15) --> 14, (3, 16) --> 6, (4, 1) --> 17, (4, 2) --> 20, (4, 3) --> 4, (4, 4) --> 0, (4, 5) --> 9,
                 (4, 6) --> 23, (4, 7) --> 2, (4, 8) --> 1, (4, 9) --> 9, (4, 10) --> 15, (4, 11) --> 11,
                 (4, 12) --> 22, (4, 13) --> 19, (4, 14) --> 21, (4, 15) --> 19, (4, 16) --> 23, (5, 1) --> 9,
                 (5, 2) --> 1, (5, 3) --> 2, (5, 4) --> 9, (5, 5) --> 0, (5, 6) --> 3, (5, 7) --> 7, (5, 8) --> 10,
                 (5, 9) --> 14, (5, 10) --> 23, (5, 11) --> 6, (5, 12) --> 12, (5, 13) --> 0, (5, 14) --> 12,
                 (5, 15) --> 2, (5, 16) --> 12, (6, 1) --> 6, (6, 2) --> 8, (6, 3) --> 10, (6, 4) --> 23, (6, 5) --> 3,
                 (6, 6) --> 0, (6, 7) --> 3, (6, 8) --> 8, (6, 9) --> 20, (6, 10) --> 4, (6, 11) --> 6, (6, 12) --> 13,
                 (6, 13) --> 19, (6, 14) --> 8, (6, 15) --> 19, (6, 16) --> 18, (7, 1) --> 12, (7, 2) --> 9,
                 (7, 3) --> 22, (7, 4) --> 2, (7, 5) --> 7, (7, 6) --> 3, (7, 7) --> 0, (7, 8) --> 7, (7, 9) --> 1,
                 (7, 10) --> 8, (7, 11) --> 25, (7, 12) --> 13, (7, 13) --> 4, (7, 14) --> 9, (7, 15) --> 5,
                 (7, 16) --> 17, (8, 1) --> 21, (8, 2) --> 0, (8, 3) --> 13, (8, 4) --> 1, (8, 5) --> 10, (8, 6) --> 8,
                 (8, 7) --> 7, (8, 8) --> 0, (8, 9) --> 19, (8, 10) --> 0, (8, 11) --> 12, (8, 12) --> 18,
                 (8, 13) --> 7, (8, 14) --> 25, (8, 15) --> 23, (8, 16) --> 14, (9, 1) --> 6, (9, 2) --> 5,
                 (9, 3) --> 1, (9, 4) --> 9, (9, 5) --> 14, (9, 6) --> 20, (9, 7) --> 1, (9, 8) --> 19, (9, 9) --> 0,
                 (9, 10) --> 6, (9, 11) --> 6, (9, 12) --> 7, (9, 13) --> 6, (9, 14) --> 25, (9, 15) --> 21,
                 (9, 16) --> 2, (10, 1) --> 12, (10, 2) --> 5, (10, 3) --> 18, (10, 4) --> 15, (10, 5) --> 23,
                 (10, 6) --> 4, (10, 7) --> 8, (10, 8) --> 0, (10, 9) --> 6, (10, 10) --> 0, (10, 11) --> 3,
                 (10, 12) --> 19, (10, 13) --> 15, (10, 14) --> 21, (10, 15) --> 6, (10, 16) --> 8, (11, 1) --> 5,
                 (11, 2) --> 24, (11, 3) --> 14, (11, 4) --> 11, (11, 5) --> 6, (11, 6) --> 6, (11, 7) --> 25,
                 (11, 8) --> 12, (11, 9) --> 6, (11, 10) --> 3, (11, 11) --> 0, (11, 12) --> 7, (11, 13) --> 21,
                 (11, 14) --> 17, (11, 15) --> 0, (11, 16) --> 17, (12, 1) --> 24, (12, 2) --> 14, (12, 3) --> 22,
                 (12, 4) --> 22, (12, 5) --> 12, (12, 6) --> 13, (12, 7) --> 13, (12, 8) --> 18, (12, 9) --> 7,
                 (12, 10) --> 19, (12, 11) --> 7, (12, 12) --> 0, (12, 13) --> 7, (12, 14) --> 8, (12, 15) --> 2,
                 (12, 16) --> 10, (13, 1) --> 24, (13, 2) --> 25, (13, 3) --> 21, (13, 4) --> 19, (13, 5) --> 0,
                 (13, 6) --> 19, (13, 7) --> 4, (13, 8) --> 7, (13, 9) --> 6, (13, 10) --> 15, (13, 11) --> 21,
                 (13, 12) --> 7, (13, 13) --> 0, (13, 14) --> 7, (13, 15) --> 23, (13, 16) --> 12, (14, 1) --> 14,
                 (14, 2) --> 11, (14, 3) --> 19, (14, 4) --> 21, (14, 5) --> 12, (14, 6) --> 8, (14, 7) --> 9,
                 (14, 8) --> 25, (14, 9) --> 25, (14, 10) --> 21, (14, 11) --> 17, (14, 12) --> 8, (14, 13) --> 7,
                 (14, 14) --> 0, (14, 15) --> 7, (14, 16) --> 19, (15, 1) --> 20, (15, 2) --> 4, (15, 3) --> 14,
                 (15, 4) --> 19, (15, 5) --> 2, (15, 6) --> 19, (15, 7) --> 5, (15, 8) --> 23, (15, 9) --> 21,
                 (15, 10) --> 6, (15, 11) --> 0, (15, 12) --> 2, (15, 13) --> 23, (15, 14) --> 7, (15, 15) --> 0,
                 (15, 16) --> 25, (16, 1) --> 6, (16, 2) --> 16, (16, 3) --> 6, (16, 4) --> 23, (16, 5) --> 12,
                 (16, 6) --> 18, (16, 7) --> 17, (16, 8) --> 14, (16, 9) --> 2, (16, 10) --> 8, (16, 11) --> 17,
                 (16, 12) --> 10, (16, 13) --> 12, (16, 14) --> 19, (16, 15) --> 25, (16, 16) --> 0)
letting maxDist be 47
letting minDist be 214
letting nbCharacter be 16
letting numOfCodeWords be 7
